Minimize
obj: 1x_1 + 6x_2 + 2x_3 + 5x_4 + 6x_5 + 7x_6 + 1x_7 + 3x_8 + 5x_9 + 3x_10 + 7x_11 + 2x_12
Subject To
x_13 = 2
x_14 = 1
x_15 = 1
x_3 - x_12 +  x_1 - x_7 +  x_13 +  x_2 - x_5 = 0
x_4 - x_9 +  x_5 - x_2 +  x_6 - x_11 = 0
x_7 - x_1 - x_14 +  x_8 - x_10 +  x_9 - x_4 = 0
x_10 - x_8 - x_15 +  x_12 - x_3 +  x_11 - x_6 = 0
Bounds
x_1 >= 0
x_2 >= 0
x_3 >= 0
x_4 >= 0
x_5 >= 0
x_6 >= 0
x_7 >= 0
x_8 >= 0
x_9 >= 0
x_10 >= 0
x_11 >= 0
x_12 >= 0
x_13 >= 0
x_14 >= 0
x_15 >= 0
General
Binaries
End
